;(set-option :produce-unsat-cores true )
(set-logic ALL_SUPPORTED )
(declare-sort Nat$ 0 )
(declare-sort Nat_bool_fun$ 0 )
(declare-sort Nat_nat_prod$ 0)
(declare-sort Nat_nat_prod_nat_nat_prod_prod$ 0)
(declare-fun fst$ (Nat_nat_prod$)Nat$)
(declare-fun snd$ (Nat_nat_prod$)Nat$)
(declare-fun pair$ (Nat$ Nat$ )Nat_nat_prod$)
(declare-fun fst$a (Nat_nat_prod_nat_nat_prod_prod$)Nat_nat_prod$)
(declare-fun snd$a (Nat_nat_prod_nat_nat_prod_prod$)Nat_nat_prod$)
(declare-fun pair$a (Nat_nat_prod$ Nat_nat_prod$ )Nat_nat_prod_nat_nat_prod_prod$)
(declare-codatatypes ()((Nat_nat_prod_nat_nat_prod_prod_tree$ (node$ (root$ Nat_nat_prod_nat_nat_prod_prod$ )(left$ Nat_nat_prod_nat_nat_prod_prod_tree$ )(right$ Nat_nat_prod_nat_nat_prod_prod_tree$ )))))
(declare-sort Dir$ 0)
(declare-sort Dir_list$ 0)
(declare-fun l$ ()Dir$)
(declare-fun r$ ()Dir$)
(declare-fun nil$ ()Dir_list$)
(declare-fun hd$ (Dir_list$)Dir$)
(declare-fun tl$ (Dir_list$)Dir_list$)
(declare-fun cons$ (Dir$ Dir_list$ )Dir_list$)
(declare-fun m$ ()Nat_nat_prod_nat_nat_prod_prod$ )
(declare-fun det$ (Nat_nat_prod_nat_nat_prod_prod$ )Nat$ )
(declare-fun one$ ()Nat$ )
(declare-fun imat$ ()Nat_nat_prod_nat_nat_prod_prod$ )
(declare-fun less$ (Nat$ )Nat_bool_fun$ )
(declare-fun path$ ()Dir_list$ )
(declare-fun zero$ ()Nat$ )
(declare-fun lLmat$ ()Nat_nat_prod_nat_nat_prod_prod$ )
(declare-fun uRmat$ ()Nat_nat_prod_nat_nat_prod_prod$ )
(declare-fun fun_app$ (Nat_bool_fun$ Nat$ )Bool )
(declare-fun mediant$ (Nat_nat_prod_nat_nat_prod_prod$ )Nat_nat_prod$ )
(declare-fun traverse_tree$ (Dir_list$ Nat_nat_prod_nat_nat_prod_prod_tree$ )Nat_nat_prod_nat_nat_prod_prod_tree$ )
(declare-fun stern_brocot_iterate_aux$ (Nat_nat_prod_nat_nat_prod_prod$ )Nat_nat_prod_nat_nat_prod_prod_tree$ )
(assert (! (not (and (= (det$ (root$ (traverse_tree$ path$ (stern_brocot_iterate_aux$ m$ ))))one$ )(fun_app$ (less$ zero$ )(snd$ (mediant$ (root$ (traverse_tree$ path$ (stern_brocot_iterate_aux$ m$ )))))))):named a0 ))
(assert (! (= (det$ m$ )one$ ):named a1 ))
(assert (! (fun_app$ (less$ zero$ )(snd$ (mediant$ m$ ))):named a2 ))
(assert (! (forall ((?v0 Nat$ ))(= (fun_app$ (less$ ?v0 )one$ )(= ?v0 zero$ ))):named a3 ))
(assert (! (forall ((?v0 Nat$ ))(= (not (= ?v0 zero$ ))(fun_app$ (less$ zero$ )?v0 ))):named a4 ))
(assert (! (forall ((?v0 Nat$ ))(= (not (fun_app$ (less$ zero$ )?v0 ))(= ?v0 zero$ ))):named a5 ))
(assert (! (forall ((?v0 Nat$ ))(! (= (fun_app$ (less$ ?v0 )zero$ )false ):pattern ((less$ ?v0 )))):named a6 ))
(assert (! (fun_app$ (less$ zero$ )one$ ):named a7 ))
(assert (! (not (fun_app$ (less$ one$ )zero$ )):named a8 ))
(assert (! (= (det$ imat$ )one$ ):named a9 ))
(assert (! (= (det$ lLmat$ )one$ ):named a10 ))
(assert (! (= (det$ uRmat$ )one$ ):named a11 ))
(assert (! (forall ((?v0 Nat$ ))(=> (=> (= ?v0 zero$ )false )(fun_app$ (less$ zero$ )?v0 ))):named a12 ))
(assert (! (forall ((?v0 Nat$ ))(= (= zero$ ?v0 )(= ?v0 zero$ ))):named a13 ))
(assert (! (forall ((?v0 Nat$ ))(= (= one$ ?v0 )(= ?v0 one$ ))):named a14 ))
(check-sat )
;(get-unsat-core )
